NAME          GENERIC                                        
ROWS                                                         
 N  COST                                                     
 L  LE1                                                      
COLUMNS                                                      
    X1        COST      0.0673         LE1       0.58714     
    X2        COST      0.21426        LE1       0.53693     
    X3        COST      0.11517        LE1       0.67668     
    X4        COST      0.14561        LE1       0.49588     
    X5        COST      0.11374        LE1       0.79894     
    X6        COST      0.085802       LE1       0.5475      
    X7        COST      0.17664        LE1       0.52206     
    X8        COST      0.10367        LE1       0.77064     
    X9        COST      0.14554        LE1       0.67784     
    X10       COST      0.097555       LE1       0.64545     
    X11       COST      0.21386        LE1       0.39407     
    X12       COST      0.16053        LE1       0.59558     
    X13       COST      0.14926        LE1       0.57306     
    X14       COST      0.13616        LE1       0.49051     
    X15       COST      0.075068       LE1       0.64544     
    X16       COST      0.1921         LE1       0.58884     
    X17       COST      0.13966        LE1       0.99435     
    X18       COST      0.040391       LE1       0.69546     
    X19       COST      0.23136        LE1       0.98009     
    X20       COST      0.083808       LE1       0.85813     
    X21       COST      0.13366        LE1       0.65186     
    X22       COST      0.1314         LE1       0.89967     
    X23       COST      0.12605        LE1       0.85096     
    X24       COST      0.12303        LE1       0.68013     
    X25       COST      0.098754       LE1       0.8407      
    X26       COST      0.098133       LE1       0.59847     
    X27       COST      0.086165       LE1       0.69247     
    X28       COST      0.14287        LE1       0.56533     
    X29       COST      0.17745        LE1       0.59971     
    X30       COST      0.0996         LE1       0.81658     
    X31       COST      0.12869        LE1       0.67417     
    X32       COST      0.12351        LE1       0.54645     
    X33       COST      0.032884       LE1       0.49377     
    X34       COST      0.13224        LE1       0.74556     
    X35       COST      0.070267       LE1       0.80862     
    X36       COST      0.21791        LE1       0.65752     
    X37       COST      0.07201        LE1       0.86459     
    X38       COST      0.091722       LE1       0.73113     
    X39       COST      0.095778       LE1       0.69717     
    X40       COST      0.1238         LE1       0.55295     
    X41       COST      0.10035        LE1       0.78411     
    X42       COST      0.13868        LE1       0.6203      
    X43       COST      0.09781        LE1       0.64798     
    X44       COST      0.14335        LE1       0.85775     
    X45       COST      0.1957         LE1       0.55912     
    X46       COST      0.11857        LE1       0.65727     
    X47       COST      0.12933        LE1       0.70192     
    X48       COST      0.085298       LE1       0.70425     
    X49       COST      0.1036         LE1       0.69409     
    X50       COST      0.1497         LE1       0.61037     
    X51       COST      0.27153        LE1       0.58886     
    X52       COST      0.17067        LE1       0.60512     
    X53       COST      0.0872         LE1       0.7919      
    X54       COST      0.10182        LE1       0.57913     
    X55       COST      0.10882        LE1       0.73196     
    X56       COST      0.20317        LE1       0.69756     
    X57       COST      0.23664        LE1       0.61382     
    X58       COST      0.18182        LE1       0.71349     
    X59       COST      0.096687       LE1       0.37574     
    X60       COST      0.10408        LE1       0.52054     
    X61       COST      0.14607        LE1       0.6983      
    X62       COST      0.11442        LE1       0.60368     
    X63       COST      0.089785       LE1       0.66934     
    X64       COST      0.13312        LE1       0.63666     
    X65       COST      0.19738        LE1       0.69338     
    X66       COST      0.2182         LE1       0.55756     
    X67       COST      0.092661       LE1       0.52739     
    X68       COST      0.079429       LE1       0.73532     
    X69       COST      0.19545        LE1       0.50861     
    X70       COST      0.14627        LE1       0.88441     
    X71       COST      0.12005        LE1       0.65789     
    X72       COST      0.10572        LE1       0.64688     
    X73       COST      0.16959        LE1       0.5098      
    X74       COST      0.09102        LE1       0.75772     
    X75       COST      0.11018        LE1       0.63685     
    X76       COST      0.1261         LE1       0.5974      
    X77       COST      0.35329        LE1       0.82021     
    X78       COST      0.1215         LE1       0.61892     
    X79       COST      0.096351       LE1       0.8586      
    X80       COST      0.1275         LE1       0.54868     
    X81       COST      0.083778       LE1       0.61762     
    X82       COST      0.10081        LE1       0.85372     
    X83       COST      0.17639        LE1       0.69126     
    X84       COST      0.12509        LE1       0.8635      
    X85       COST      0.039032       LE1       0.9458      
    X86       COST      0.12479        LE1       0.72583     
    X87       COST      0.10476        LE1       0.64941     
    X88       COST      0.1252         LE1       0.59162     
    X89       COST      0.068342       LE1       0.86406     
    X90       COST      0.16425        LE1       0.51071     
    X91       COST      0.14791        LE1       0.5874      
    X92       COST      0.15517        LE1       0.65188     
    X93       COST      0.038354       LE1       0.54664     
    X94       COST      0.061379       LE1       0.40136     
    X95       COST      0.081293       LE1       0.72481     
    X96       COST      0.11817        LE1       0.79963     
    X97       COST      0.10947        LE1       0.65767     
    X98       COST      0.13363        LE1       0.7638      
    X99       COST      0.082735       LE1       0.54135     
    X100      COST      0.051218       LE1       0.56044     
RHS                                                          
    RHS       LE1       5.67917215                           
BOUNDS                                                       
 UP BND1      X1        1                                    
 UP BND1      X2        1                                    
 UP BND1      X3        1                                    
 UP BND1      X4        1                                    
 UP BND1      X5        1                                    
 UP BND1      X6        1                                    
 UP BND1      X7        1                                    
 UP BND1      X8        1                                    
 UP BND1      X9        1                                    
 UP BND1      X10       1                                    
 UP BND1      X11       1                                    
 UP BND1      X12       1                                    
 UP BND1      X13       1                                    
 UP BND1      X14       1                                    
 UP BND1      X15       1                                    
 UP BND1      X16       1                                    
 UP BND1      X17       1                                    
 UP BND1      X18       1                                    
 UP BND1      X19       1                                    
 UP BND1      X20       1                                    
 UP BND1      X21       1                                    
 UP BND1      X22       1                                    
 UP BND1      X23       1                                    
 UP BND1      X24       1                                    
 UP BND1      X25       1                                    
 UP BND1      X26       1                                    
 UP BND1      X27       1                                    
 UP BND1      X28       1                                    
 UP BND1      X29       1                                    
 UP BND1      X30       1                                    
 UP BND1      X31       1                                    
 UP BND1      X32       1                                    
 UP BND1      X33       1                                    
 UP BND1      X34       1                                    
 UP BND1      X35       1                                    
 UP BND1      X36       1                                    
 UP BND1      X37       1                                    
 UP BND1      X38       1                                    
 UP BND1      X39       1                                    
 UP BND1      X40       1                                    
 UP BND1      X41       1                                    
 UP BND1      X42       1                                    
 UP BND1      X43       1                                    
 UP BND1      X44       1                                    
 UP BND1      X45       1                                    
 UP BND1      X46       1                                    
 UP BND1      X47       1                                    
 UP BND1      X48       1                                    
 UP BND1      X49       1                                    
 UP BND1      X50       1                                    
 UP BND1      X51       1                                    
 UP BND1      X52       1                                    
 UP BND1      X53       1                                    
 UP BND1      X54       1                                    
 UP BND1      X55       1                                    
 UP BND1      X56       1                                    
 UP BND1      X57       1                                    
 UP BND1      X58       1                                    
 UP BND1      X59       1                                    
 UP BND1      X60       1                                    
 UP BND1      X61       1                                    
 UP BND1      X62       1                                    
 UP BND1      X63       1                                    
 UP BND1      X64       1                                    
 UP BND1      X65       1                                    
 UP BND1      X66       1                                    
 UP BND1      X67       1                                    
 UP BND1      X68       1                                    
 UP BND1      X69       1                                    
 UP BND1      X70       1                                    
 UP BND1      X71       1                                    
 UP BND1      X72       1                                    
 UP BND1      X73       1                                    
 UP BND1      X74       1                                    
 UP BND1      X75       1                                    
 UP BND1      X76       1                                    
 UP BND1      X77       1                                    
 UP BND1      X78       1                                    
 UP BND1      X79       1                                    
 UP BND1      X80       1                                    
 UP BND1      X81       1                                    
 UP BND1      X82       1                                    
 UP BND1      X83       1                                    
 UP BND1      X84       1                                    
 UP BND1      X85       1                                    
 UP BND1      X86       1                                    
 UP BND1      X87       1                                    
 UP BND1      X88       1                                    
 UP BND1      X89       1                                    
 UP BND1      X90       1                                    
 UP BND1      X91       1                                    
 UP BND1      X92       1                                    
 UP BND1      X93       1                                    
 UP BND1      X94       1                                    
 UP BND1      X95       1                                    
 UP BND1      X96       1                                    
 UP BND1      X97       1                                    
 UP BND1      X98       1                                    
 UP BND1      X99       1                                    
 UP BND1      X100      1                                    
ENDATA                                                       
